language ESSENCE' 1.0
letting AssignmentMatrix be [[0, 0, 0, 0, 0, 0, 0, 0, 0, 0, 0, 0, 0, 0, 1, 1, 1, 1, 1, 1, 1, 1, 1, 1, 1, 1], 
[1, 1, 0, 0, 1, 1, 1, 1, 0, 0, 1, 1, 1, 0, 0, 0, 0, 0, 0, 0, 0, 0, 0, 0, 0, 0], 
[0, 0, 0, 0, 0, 0, 0, 0, 0, 0, 0, 0, 0, 0, 0, 0, 0, 0, 0, 0, 0, 0, 0, 0, 0, 0], 
[0, 0, 1, 1, 0, 0, 0, 0, 1, 1, 0, 0, 0, 1, 0, 0, 0, 0, 0, 0, 0, 0, 0, 0, 0, 0], 
[0, 0, 0, 0, 0, 0, 0, 0, 0, 0, 0, 0, 0, 0, 0, 0, 0, 0, 0, 0, 0, 0, 0, 0, 1, 1]]
letting CPU be [2, 2, 4, 4, 2, 2, 2, 2, 4, 4, 2, 2, 2, 4, 2, 2, 2, 2, 2, 2, 2, 2, 2, 2, 8, 8]
letting Memory be [3750, 3750, 7500, 7500, 3750, 3750, 3750, 3750, 7500, 7500, 3750, 3750, 7500, 7500, 3750, 3750, 3750, 3750, 3750, 3750, 3750, 3750, 3750, 3750, 15000, 15000]
letting Price be [116, 116, 210, 210, 116, 116, 116, 116, 210, 210, 116, 116, 175, 210, 116, 116, 116, 116, 116, 116, 128, 128, 126, 116, 420, 420]
letting Storage be [2000, 2000, 2000, 2000, 2000, 2000, 2000, 2000, 2000, 2000, 2000, 2000, 2000, 2000, 2000, 2000, 2000, 2000, 2000, 2000, 2000, 2000, 2000, 2000, 2000, 2000]
letting VMType be [433, 433, 341, 341, 433, 433, 433, 433, 341, 341, 433, 433, 447, 341, 433, 433, 433, 433, 433, 433, 461, 461, 464, 433, 278, 278]
